solving instance uflp nldep holmberg 50 cubic
Set parameter TokenServer to value "licences.gerad.lan"
Set parameter MIPGap to value 1e-06
Set parameter FuncPieceError to value 1e-06
Set parameter Threads to value 1
Set parameter FuncPieces to value -2
Set parameter TimeLimit to value 3600
Gurobi Optimizer version 12.0.2 build v12.0.2rc0 (linux64 - "AlmaLinux 9.6 (Sage Margay)")

CPU model: Intel(R) Xeon(R) Gold 6258R CPU @ 2.70GHz, instruction set [SSE2|AVX|AVX2|AVX512]
Thread count: 56 physical cores, 56 logical processors, using up to 1 threads

Non-default parameters:
TimeLimit  3600
MIPGap  1e-06
Threads  1
FuncPieces  -2
FuncPieceError  1e-06

Optimize a model with 1120 rows, 1040 columns and 4040 nonzeros
Model fingerprint: 0x30fd7ed7
Model has 10 function constraints treated as nonlinear
  10 POLY
Variable types: 1030 continuous, 10 integer (10 binary)
Coefficient statistics:
  Matrix range     [1e+00, 1e+02]
  Objective range  [1e+00, 4e+02]
  Bounds range     [1e+00, 1e+10]
  RHS range        [1e+00, 1e+00]
Warning: Model contains large bounds
         Consider reformulating model or setting NumericFocus parameter
         to avoid numerical issues.
Presolve removed 10 rows and 10 columns
Presolve time: 0.01s
Presolved: 1190 rows, 1031 columns, 4190 nonzeros
Presolved model has 10 nonlinear constraint(s)

Solving non-convex MINLP

Variable types: 1021 continuous, 10 integer (10 binary)
Found heuristic solution: objective 15162.000000

Root relaxation: objective 6.027842e+03, 61 iterations, 0.00 seconds (0.00 work units)

    Nodes    |    Current Node    |     Objective Bounds      |     Work
 Expl Unexpl |  Obj  Depth IntInf | Incumbent    BestBd   Gap | It/Node Time

     0     0 6027.84242    0    6 15162.0000 6027.84242  60.2%     -    0s
     0     0 6027.84242    0    6 15162.0000 6027.84242  60.2%     -    0s
H    0     0                    6164.3596961 6027.84242  2.21%     -    0s
     0     2 6053.14725    0    6 6164.35970 6053.14725  1.80%     -    0s
H   31     9                    6161.3340857 6053.14725  1.76%  25.4    0s
*   51    13              12    6161.3340845 6053.14725  1.76%  35.7    0s
H   57    13                    6144.1497413 6077.65069  1.08%  32.2    0s
*   70    16              11    6144.1497398 6077.65069  1.08%  36.3    0s

Explored 113 nodes (3864 simplex iterations) in 0.22 seconds (0.12 work units)
Thread count was 1 (of 56 available processors)

Solution count 4: 6144.15 6161.33 6164.36 15162 

Optimal solution found (tolerance 1.00e-06)
Best objective 6.144149739826e+03, best bound 6.144149739826e+03, gap 0.0000%

User-callback calls 609, time in user-callback 0.00 sec
reading holmberg data file ../../../../../instances/uflp/holmberg/p50
primal_bound = 6144.149739825664, dual_bound = 6144.149739825664, gap = 0.0, time = 0.23
OPTIMAL LOCATIONS:
y[1] = 1.0
y[4] = 1.0
y[6] = 1.0
y[8] = 1.0
y[10] = 1.0
OPTIMAL WAREHOUSING:
f[1] = 317.0
f[4] = 310.0
f[6] = 209.0
f[8] = 176.0
f[10] = 446.0
OPTIMAL WAREHOUSING COSTS:
nlobj[1] = 126.34403519945312
nlobj[2] = 0.0
nlobj[3] = 0.0
nlobj[4] = 159.7718704560773
nlobj[5] = 0.0
nlobj[6] = 131.0038263886111
nlobj[7] = 0.0
nlobj[8] = 157.4870985325395
nlobj[9] = 0.0
nlobj[10] = 116.54290924898353
OPTIMAL ASSIGNMENTS:
x[1, 2] = 1.0
x[1, 4] = 1.0
x[1, 12] = 1.0
x[1, 21] = 1.0
x[1, 22] = 1.0
x[1, 23] = 1.0
x[1, 24] = 1.0
x[1, 25] = 1.0
x[1, 26] = 1.0
x[1, 39] = 1.0
x[1, 40] = 1.0
x[1, 41] = 1.0
x[1, 53] = 1.0
x[1, 54] = 1.0
x[1, 55] = 1.0
x[1, 56] = 1.0
x[1, 58] = 1.0
x[1, 67] = 1.0
x[1, 72] = 1.0
x[1, 73] = 1.0
x[1, 74] = 1.0
x[1, 75] = 1.0
x[4, 1] = 1.0
x[4, 3] = 1.0
x[4, 9] = 1.0
x[4, 20] = 1.0
x[4, 28] = 1.0
x[4, 29] = 1.0
x[4, 33] = 1.0
x[4, 34] = 1.0
x[4, 35] = 1.0
x[4, 50] = 1.0
x[4, 51] = 1.0
x[4, 65] = 1.0
x[4, 66] = 1.0
x[4, 68] = 1.0
x[4, 71] = 1.0
x[4, 76] = 1.0
x[4, 77] = 1.0
x[4, 78] = 1.0
x[4, 79] = 1.0
x[4, 80] = 1.0
x[4, 81] = 1.0
x[6, 7] = 1.0
x[6, 8] = 1.0
x[6, 18] = 1.0
x[6, 19] = 1.0
x[6, 36] = 1.0
x[6, 45] = 1.0
x[6, 46] = 1.0
x[6, 47] = 1.0
x[6, 48] = 1.0
x[6, 49] = 1.0
x[6, 52] = 1.0
x[6, 82] = 1.0
x[6, 83] = 1.0
x[6, 89] = 1.0
x[8, 10] = 1.0
x[8, 11] = 1.0
x[8, 27] = 1.0
x[8, 30] = 1.0
x[8, 31] = 1.0
x[8, 32] = 1.0
x[8, 62] = 1.0
x[8, 63] = 1.0
x[8, 64] = 1.0
x[8, 69] = 1.0
x[8, 70] = 1.0
x[8, 88] = 1.0
x[8, 90] = 1.0
x[10, 5] = 1.0
x[10, 6] = 1.0
x[10, 13] = 1.0
x[10, 14] = 1.0
x[10, 15] = 1.0
x[10, 16] = 1.0
x[10, 17] = 1.0
x[10, 37] = 1.0
x[10, 38] = 1.0
x[10, 42] = 1.0
x[10, 43] = 1.0
x[10, 44] = 1.0
x[10, 57] = 1.0
x[10, 59] = 1.0
x[10, 60] = 1.0
x[10, 61] = 1.0
x[10, 84] = 1.0
x[10, 85] = 1.0
x[10, 86] = 1.0
x[10, 87] = 1.0
x[10, 91] = 1.0
x[10, 92] = 1.0
x[10, 93] = 1.0
x[10, 94] = 1.0
x[10, 95] = 1.0
x[10, 96] = 1.0
x[10, 97] = 1.0
x[10, 98] = 1.0
x[10, 99] = 1.0
x[10, 100] = 1.0
fixed costs = 1934.0
assignment costs = 5453.0
warehousing costs = 691.1497398256645
total cost = 6144.149739825664
